nN = 5;
nR = 25;
nH = 2;

a = [[22, 20, 18, 19, 18, 24, 22, 17, 23, 20, 24, 15, 21, 24, 24, 24, 24, 25, 19, 15, 22, 19, 20, 16, 20], [15, 25, 18, 18, 21, 15, 20, 16, 21, 17, 15, 22, 18, 20, 18, 18, 19, 15, 15, 17, 19, 19, 17, 22, 22], [23, 18, 24, 15, 20, 24, 18, 18, 20, 16, 23, 16, 23, 16, 15, 17, 17, 20, 24, 22, 23, 17, 15, 25, 17], [17, 19, 18, 20, 20, 19, 17, 25, 19, 20, 16, 17, 17, 16, 21, 21, 25, 18, 15, 15, 24, 24, 15, 15, 24], [17, 22, 19, 19, 19, 24, 15, 16, 16, 25, 25, 24, 20, 17, 15, 17, 17, 19, 16, 18, 23, 20, 15, 21, 18]];
c = [[[0, 0, 0, 0, 0, 0, 0, 0, 0, 0, 0, 0, 0, 0, 0, 0, 0, 0, 0, 0, 0, 0, 0, 0, 0], [50, 40, 40, 30, 44, 49, 41, 42, 46, 42, 35, 32, 50, 50, 49, 33, 47, 38, 39, 30, 46, 46, 30, 30, 37], [50, 41, 41, 30, 31, 36, 36, 34, 48, 47, 48, 40, 30, 32, 40, 44, 36, 42, 49, 32, 33, 49, 45, 31, 39], [37, 31, 41, 34, 45, 38, 44, 47, 35, 40, 31, 40, 49, 34, 32, 47, 42, 41, 39, 50, 36, 35, 30, 36, 42], [46, 34, 35, 32, 34, 30, 35, 36, 38, 47, 33, 50, 44, 30, 32, 43, 32, 31, 39, 43, 35, 40, 36, 37, 34]], [[0, 0, 0, 0, 0, 0, 0, 0, 0, 0, 0, 0, 0, 0, 0, 0, 0, 0, 0, 0, 0, 0, 0, 0, 0], [0, 0, 0, 0, 0, 0, 0, 0, 0, 0, 0, 0, 0, 0, 0, 0, 0, 0, 0, 0, 0, 0, 0, 0, 0], [35, 46, 37, 39, 37, 50, 46, 37, 41, 40, 40, 43, 44, 40, 39, 43, 33, 47, 41, 37, 30, 44, 49, 38, 34], [44, 40, 39, 36, 36, 42, 37, 32, 38, 48, 41, 49, 46, 46, 31, 48, 37, 36, 43, 48, 35, 30, 30, 36, 31], [32, 36, 34, 39, 34, 41, 32, 41, 30, 48, 43, 46, 31, 42, 42, 36, 38, 38, 47, 45, 30, 36, 31, 30, 49]], [[0, 0, 0, 0, 0, 0, 0, 0, 0, 0, 0, 0, 0, 0, 0, 0, 0, 0, 0, 0, 0, 0, 0, 0, 0], [0, 0, 0, 0, 0, 0, 0, 0, 0, 0, 0, 0, 0, 0, 0, 0, 0, 0, 0, 0, 0, 0, 0, 0, 0], [0, 0, 0, 0, 0, 0, 0, 0, 0, 0, 0, 0, 0, 0, 0, 0, 0, 0, 0, 0, 0, 0, 0, 0, 0], [42, 48, 36, 30, 41, 41, 48, 42, 47, 32, 36, 32, 40, 32, 39, 35, 49, 47, 46, 49, 41, 30, 35, 30, 30], [41, 37, 37, 48, 40, 50, 42, 33, 42, 31, 48, 49, 39, 34, 31, 34, 30, 40, 46, 34, 48, 42, 30, 47, 50]], [[0, 0, 0, 0, 0, 0, 0, 0, 0, 0, 0, 0, 0, 0, 0, 0, 0, 0, 0, 0, 0, 0, 0, 0, 0], [0, 0, 0, 0, 0, 0, 0, 0, 0, 0, 0, 0, 0, 0, 0, 0, 0, 0, 0, 0, 0, 0, 0, 0, 0], [0, 0, 0, 0, 0, 0, 0, 0, 0, 0, 0, 0, 0, 0, 0, 0, 0, 0, 0, 0, 0, 0, 0, 0, 0], [0, 0, 0, 0, 0, 0, 0, 0, 0, 0, 0, 0, 0, 0, 0, 0, 0, 0, 0, 0, 0, 0, 0, 0, 0], [33, 41, 50, 34, 42, 50, 46, 50, 37, 41, 44, 30, 30, 30, 37, 37, 47, 46, 36, 49, 40, 33, 47, 48, 43]], [[0, 0, 0, 0, 0, 0, 0, 0, 0, 0, 0, 0, 0, 0, 0, 0, 0, 0, 0, 0, 0, 0, 0, 0, 0], [0, 0, 0, 0, 0, 0, 0, 0, 0, 0, 0, 0, 0, 0, 0, 0, 0, 0, 0, 0, 0, 0, 0, 0, 0], [0, 0, 0, 0, 0, 0, 0, 0, 0, 0, 0, 0, 0, 0, 0, 0, 0, 0, 0, 0, 0, 0, 0, 0, 0], [0, 0, 0, 0, 0, 0, 0, 0, 0, 0, 0, 0, 0, 0, 0, 0, 0, 0, 0, 0, 0, 0, 0, 0, 0], [0, 0, 0, 0, 0, 0, 0, 0, 0, 0, 0, 0, 0, 0, 0, 0, 0, 0, 0, 0, 0, 0, 0, 0, 0]]];

q = [[[14, 117], [11, 117], [25, 105], [16, 112], [17, 107], [18, 116], [22, 115], [16, 107], [20, 109], [6, 111], [6, 110], [14, 125], [14, 120], [25, 105], [9, 116], [7, 119], [6, 112], [11, 121], [25, 116], [19, 106], [22, 112], [11, 105], [20, 113], [8, 122], [19, 119]], [[18, 125], [16, 122], [5, 119], [17, 125], [8, 120], [21, 113], [9, 112], [5, 122], [12, 113], [9, 105], [8, 117], [20, 122], [6, 106], [18, 114], [16, 111], [11, 115], [14, 115], [11, 116], [6, 114], [21, 121], [6, 120], [5, 115], [14, 125], [18, 120], [12, 109]], [[11, 111], [5, 118], [6, 118], [8, 117], [20, 123], [12, 111], [14, 114], [9, 108], [15, 112], [17, 111], [23, 107], [11, 124], [11, 116], [12, 121], [20, 109], [16, 114], [10, 113], [10, 111], [12, 111], [18, 116], [24, 105], [6, 111], [20, 106], [9, 115], [18, 114]], [[6, 123], [16, 111], [8, 111], [6, 110], [5, 117], [9, 120], [12, 115], [7, 115], [24, 108], [8, 106], [10, 115], [14, 112], [23, 121], [12, 111], [9, 115], [5, 105], [22, 118], [8, 117], [11, 107], [5, 115], [16, 108], [6, 108], [20, 111], [14, 121], [17, 122]], [[16, 122], [23, 119], [5, 124], [6, 119], [8, 106], [24, 121], [25, 122], [5, 107], [25, 107], [19, 125], [23, 125], [8, 121], [16, 116], [7, 113], [16, 118], [8, 108], [16, 109], [14, 120], [17, 121], [25, 121], [18, 115], [23, 110], [12, 124], [5, 125], [20, 118]]];
Q = [[60, 454], [48, 467], [53, 454], [46, 455], [61, 470]];
